(set-info :smt-lib-version 2.6)
(set-logic QF_BV)
(set-info :source |
 Patrice Godefroid, SAGE (systematic dynamic test generation)
 For more information: http://research.microsoft.com/en-us/um/people/pg/public_psfiles/ndss2008.pdf
|)
(set-info :category "industrial")
(set-info :status sat)
(declare-fun T1_20286 () (_ BitVec 8))
(declare-fun T1_20219 () (_ BitVec 8))
(declare-fun T1_20143 () (_ BitVec 8))
(declare-fun T1_20071 () (_ BitVec 8))
(declare-fun T1_20067 () (_ BitVec 8))
(declare-fun T2_19675 () (_ BitVec 16))
(declare-fun T1_19666 () (_ BitVec 8))
(declare-fun T1_20348 () (_ BitVec 8))
(declare-fun T2_20069 () (_ BitVec 16))
(declare-fun T4_19667 () (_ BitVec 32))
(declare-fun T1_20069 () (_ BitVec 8))
(declare-fun T1_20070 () (_ BitVec 8))
(declare-fun T1_19675 () (_ BitVec 8))
(declare-fun T1_19676 () (_ BitVec 8))
(declare-fun T1_19667 () (_ BitVec 8))
(declare-fun T1_19668 () (_ BitVec 8))
(declare-fun T1_19669 () (_ BitVec 8))
(declare-fun T1_19670 () (_ BitVec 8))
(assert (let ((?v_16 ((_ zero_extend 24) T1_20286)) (?v_15 ((_ zero_extend 24) T1_20219)) (?v_0 ((_ zero_extend 24) (_ bv1 8))) (?v_13 ((_ zero_extend 24) T1_20143)) (?v_6 ((_ zero_extend 24) T1_20071)) (?v_10 ((_ zero_extend 24) T1_20067)) (?v_3 ((_ zero_extend 16) T2_19675)) (?v_2 (bvsub ((_ zero_extend 24) T1_19666) (_ bv8 32)))) (let ((?v_4 (bvadd (bvadd (bvadd (bvadd ?v_2 (_ bv4270374 32)) ?v_3) (_ bv7 32)) ?v_10))) (let ((?v_11 (bvadd (bvadd ?v_4 (_ bv3 32)) ?v_6))) (let ((?v_17 (bvadd (bvadd ?v_11 ?v_0) ?v_13))) (let ((?v_1 (bvsub (bvadd (bvadd ?v_17 ?v_0) ?v_15) (_ bv4270343 32)))) (let ((?v_19 (bvsub (bvadd (bvadd ?v_1 (_ bv4270344 32)) ?v_16) (_ bv1 32))) (?v_18 (bvsub ?v_17 (_ bv4270343 32))) (?v_14 ((_ zero_extend 16) T2_20069)) (?v_12 (bvsub ?v_11 (_ bv4270343 32))) (?v_5 (bvsub ?v_4 (_ bv4270341 32)))) (let ((?v_7 (bvsub (bvadd (bvadd ?v_5 (_ bv4270344 32)) ?v_6) (_ bv1 32))) (?v_9 (bvadd ?v_5 (_ bv4270414 32))) (?v_8 (bvadd ?v_5 (_ bv4270415 32)))) (and true (= T4_19667 (bvor (bvshl (bvor (bvshl (bvor (bvshl ((_ zero_extend 24) T1_19670) (_ bv8 32)) ((_ zero_extend 24) T1_19669)) (_ bv8 32)) ((_ zero_extend 24) T1_19668)) (_ bv8 32)) ((_ zero_extend 24) T1_19667))) (= T2_19675 (bvor (bvshl ((_ zero_extend 8) T1_19676) (_ bv8 16)) ((_ zero_extend 8) T1_19675))) (= T2_20069 (bvor (bvshl ((_ zero_extend 8) T1_20070) (_ bv8 16)) ((_ zero_extend 8) T1_20069))) (bvule ?v_19 (bvadd ?v_1 (_ bv4270366 32))) (not (= (bvadd (bvadd ?v_2 (_ bv30 32)) (_ bv4270344 32)) (_ bv0 32))) (bvult (_ bv0 32) ?v_3) (not (= ?v_3 (_ bv0 32))) (= T4_19667 ?v_3) (not (= ?v_8 ?v_7)) (bvule ?v_7 ?v_8) (= ?v_9 ?v_7) (bvule ?v_7 ?v_9) (= ?v_10 (_ bv1 32)) (not (= ?v_14 (_ bv0 32))) (bvult (bvadd ?v_12 (_ bv4270388 32)) (bvsub (bvadd (bvadd ?v_12 (_ bv4270344 32)) ?v_13) (_ bv1 32))) (= (bvadd (bvadd (bvadd (bvadd (bvadd ?v_14 (bvsub (_ bv4294967295 32) ?v_6)) (bvsub (_ bv4294967295 32) ?v_13)) (bvsub (_ bv4294967295 32) ?v_15)) (bvsub (_ bv4294967295 32) ?v_16)) (bvsub (_ bv4294967295 32) ((_ zero_extend 24) T1_20348))) (_ bv0 32)) (bvult (bvadd ?v_18 (_ bv4270392 32)) (bvsub (bvadd (bvadd ?v_18 (_ bv4270344 32)) ?v_15) (_ bv1 32))) (bvult (bvadd ?v_1 (_ bv4270364 32)) ?v_19))))))))))
(check-sat)
(exit)
